122     4       
13      11      12      12      
0       0       0       0       0       3       2       3       4       
10      0       0       0       8       3       5       6       12      
8       0       9       0       0       2       27      30      
10      0       0       0       7       3       7       10      33      
5       4       0       0       0       3       8       15      61      
7       8       0       0       0       3       18      43      69      
7       0       9       0       0       3       9       11      17      
10      0       0       0       3       3       13      28      83      
9       9       0       0       0       3       14      46      63      
8       0       0       10      0       3       21      23      25      
9       0       0       0       8       3       24      44      115     
7       0       0       4       0       3       30      77      114     
7       0       0       0       3       3       16      32      64      
9       0       0       0       5       1       26      
9       8       0       0       0       1       75      
7       10      0       0       0       3       19      20      50      
9       0       0       0       3       2       49      97      
2       0       6       0       0       2       27      36      
2       0       0       0       1       3       48      71      98      
5       0       0       0       4       3       22      70      113     
7       0       6       0       0       2       40      91      
8       0       0       0       9       3       36      72      99      
3       0       7       0       0       3       37      49      59      
3       0       9       0       0       3       29      31      77      
5       0       0       6       0       3       47      50      57      
9       0       0       0       2       1       34      
4       0       4       0       0       1       35      
6       0       0       10      0       2       46      95      
2       0       0       0       1       1       102     
5       0       0       1       0       3       42      85      106     
2       0       10      0       0       1       47      
5       0       0       6       0       1       51      
2       0       7       0       0       3       55      56      74      
2       0       6       0       0       3       52      58      88      
7       7       0       0       0       3       38      78      104     
3       0       5       0       0       3       39      71      82      
8       0       0       0       5       1       41      
2       0       0       1       0       2       39      53      
8       0       2       0       0       3       49      60      95      
8       0       2       0       0       1       111     
3       0       0       4       0       2       48      112     
7       4       0       0       0       2       48      61      
9       0       0       10      0       1       54      
8       0       0       0       10      3       45      76      84      
4       0       4       0       0       2       64      106     
8       9       0       0       0       3       86      89      100     
5       6       0       0       0       1       113     
5       9       0       0       0       1       62      
9       0       9       0       0       2       65      116     
3       0       0       0       2       2       76      85      
5       0       6       0       0       2       59      95      
10      8       0       0       0       2       60      70      
5       0       1       0       0       3       66      80      81      
2       0       0       0       8       2       65      71      
10      0       4       0       0       1       67      
2       6       0       0       0       2       73      76      
6       0       0       2       0       2       73      101     
4       0       0       5       0       2       66      69      
4       2       0       0       0       1       69      
8       0       0       4       0       2       65      108     
9       10      0       0       0       2       75      92      
8       0       0       1       0       2       68      79      
5       5       0       0       0       2       83      98      
3       0       0       1       0       1       78      
8       2       0       0       0       2       89      107     
2       5       0       0       0       1       89      
10      0       0       6       0       1       77      
10      0       0       0       10      1       96      
4       0       3       0       0       1       87      
9       0       0       8       0       3       85      94      102     
7       0       0       2       0       1       93      
2       1       0       0       0       1       79      
10      0       0       10      0       1       75      
3       3       0       0       0       1       116     
3       0       0       9       0       1       90      
10      0       0       0       2       1       102     
3       0       2       0       0       2       84      112     
1       7       0       0       0       2       119     121     
8       0       0       0       1       1       82      
9       0       0       2       0       1       88      
3       0       0       0       7       1       88      
7       0       8       0       0       2       100     108     
1       0       0       0       10      2       84      99      
4       9       0       0       0       1       110     
3       0       2       0       0       2       99      105     
7       0       0       9       0       3       92      103     114     
9       0       0       0       9       2       90      94      
5       0       0       0       5       2       92      97      
4       0       0       0       7       1       115     
7       5       0       0       0       1       98      
7       9       0       0       0       1       118     
7       0       0       0       10      2       96      111     
8       0       1       0       0       3       101     105     109     
6       0       0       0       10      3       96      97      111     
10      0       0       6       0       1       100     
4       5       0       0       0       2       101     120     
7       0       3       0       0       2       109     117     
7       0       10      0       0       1       104     
3       0       0       0       5       1       112     
1       0       0       0       8       2       110     121     
10      0       0       4       0       1       108     
1       0       3       0       0       2       107     109     
4       0       0       10      0       1       104     
1       0       0       0       7       2       105     113     
9       0       10      0       0       1       115     
10      4       0       0       0       1       107     
4       3       0       0       0       1       110     
9       0       10      0       0       1       117     
3       9       0       0       0       1       114     
2       8       0       0       0       1       117     
4       0       0       3       0       1       116     
3       0       0       0       9       1       121     
1       0       2       0       0       1       119     
5       10      0       0       0       1       120     
4       0       0       10      0       1       120     
6       0       0       6       0       1       118     
9       10      0       0       0       1       118     
2       0       1       0       0       1       119     
6       0       0       0       4       1       122     
7       0       5       0       0       1       122     
4       0       0       2       0       1       122     
0       0       0       0       0       0       